NAME: map6_180
TYPE: TSP
COMMENT: autogenerated using a wonderful map creator
DIMENSION: 210
EDGE_WEIGHT_TYPE: EUC_2D
NODE_COORD_SECTION
1 1.0 11.0
2 1.0 12.0
3 1.0 13.0
4 1.0 14.0
5 1.0 15.0
6 36.0 62.0
7 37.0 62.0
8 38.0 62.0
9 40.0 62.0
10 41.0 62.0
11 62.0 22.0
12 62.0 21.0
13 62.0 20.0
14 40.0 1.0
15 39.0 1.0
16 1.0 16.0
17 1.0 17.0
18 1.0 18.0
19 1.0 19.0
20 1.0 20.0
21 43.0 62.0
22 44.0 62.0
23 45.0 62.0
24 46.0 62.0
25 47.0 62.0
26 62.0 19.0
27 62.0 18.0
28 38.0 1.0
29 37.0 1.0
30 36.0 1.0
31 0.0 11.0
32 0.0 12.0
33 0.0 13.0
34 0.0 14.0
35 0.0 15.0
36 36.0 63.0
37 37.0 63.0
38 38.0 63.0
39 40.0 63.0
40 41.0 63.0
41 63.0 22.0
42 63.0 21.0
43 63.0 20.0
44 40.0 0.0
45 39.0 0.0
46 0.0 16.0
47 0.0 17.0
48 0.0 18.0
49 0.0 19.0
50 0.0 20.0
51 43.0 63.0
52 44.0 63.0
53 45.0 63.0
54 46.0 63.0
55 47.0 63.0
56 63.0 19.0
57 63.0 18.0
58 38.0 0.0
59 37.0 0.0
60 36.0 0.0
61 15.0 21.0
62 41.0 40.0
63 4.0 55.0
64 8.0 46.0
65 7.0 26.0
66 1.0 40.0
67 45.0 10.0
68 26.0 39.0
69 22.0 17.0
70 14.0 13.0
71 30.0 9.0
72 57.0 57.0
73 22.0 35.0
74 51.0 16.0
75 29.0 50.0
76 38.0 53.0
77 21.0 46.0
78 63.0 61.0
79 38.0 16.0
80 55.0 4.0
81 39.0 17.0
82 53.0 16.0
83 19.0 48.0
84 35.0 44.0
85 31.0 31.0
86 43.0 5.0
87 21.0 39.0
88 1.0 8.0
89 35.0 10.0
90 33.0 22.0
91 10.0 38.0
92 50.0 56.0
93 16.0 42.0
94 31.0 24.0
95 51.0 2.0
96 12.0 20.0
97 54.0 35.0
98 48.0 49.0
99 39.0 46.0
100 24.0 24.0
101 63.0 47.0
102 54.0 44.0
103 4.0 25.0
104 38.0 57.0
105 24.0 12.0
106 27.0 29.0
107 43.0 25.0
108 4.0 52.0
109 47.0 50.0
110 28.0 46.0
111 22.0 5.0
112 61.0 58.0
113 12.0 13.0
114 57.0 54.0
115 54.0 37.0
116 51.0 22.0
117 3.0 37.0
118 40.0 56.0
119 14.0 37.0
120 21.0 52.0
121 44.0 17.0
122 12.0 49.0
123 24.0 14.0
124 6.0 63.0
125 55.0 38.0
126 4.0 54.0
127 20.0 1.0
128 50.0 51.0
129 1.0 30.0
130 53.0 13.0
131 12.0 15.0
132 19.0 63.0
133 46.0 47.0
134 51.0 6.0
135 14.0 21.0
136 49.0 43.0
137 50.0 17.0
138 30.0 20.0
139 59.0 47.0
140 56.0 57.0
141 3.0 51.0
142 54.0 14.0
143 48.0 28.0
144 57.0 31.0
145 6.0 22.0
146 4.0 4.0
147 60.0 2.0
148 12.0 17.0
149 14.0 23.0
150 49.0 54.0
151 26.0 6.0
152 2.0 6.0
153 17.0 25.0
154 25.0 8.0
155 56.0 50.0
156 57.0 15.0
157 2.0 42.0
158 20.0 32.0
159 33.0 51.0
160 23.0 28.0
161 13.0 57.0
162 38.0 56.0
163 6.0 51.0
164 23.0 37.0
165 4.0 33.0
166 55.0 53.0
167 16.0 16.0
168 37.0 48.0
169 34.0 6.0
170 37.0 11.0
171 43.0 45.0
172 13.0 50.0
173 39.0 50.0
174 31.0 46.0
175 45.0 54.0
176 36.0 51.0
177 39.0 13.0
178 5.0 45.0
179 2.0 28.0
180 27.0 60.0
181 12.0 23.0
182 41.0 59.0
183 18.0 36.0
184 25.0 51.0
185 34.0 29.0
186 31.0 48.0
187 45.0 47.0
188 15.0 15.0
189 58.0 59.0
190 7.0 20.0
191 33.0 39.0
192 61.0 9.0
193 10.0 55.0
194 56.0 22.0
195 8.0 12.0
196 9.0 11.0
197 5.0 22.0
198 56.0 40.0
199 14.0 34.0
200 8.0 30.0
201 43.0 15.0
202 54.0 61.0
203 6.0 5.0
204 11.0 35.0
205 26.0 17.0
206 44.0 32.0
207 24.0 29.0
208 5.0 58.0
209 21.0 21.0
210 1.0 36.0
211 50.0 2.0
212 10.0 48.0
213 52.0 63.0
214 54.0 27.0
215 54.0 36.0
216 62.0 49.0
217 11.0 10.0
218 37.0 29.0
219 49.0 58.0
220 21.0 60.0
221 3.0 54.0
222 24.0 22.0
223 33.0 34.0
224 44.0 34.0
225 59.0 62.0
226 33.0 43.0
227 52.0 1.0
228 25.0 57.0
229 63.0 41.0
230 31.0 36.0
231 57.0 55.0
232 51.0 14.0
233 48.0 6.0
234 20.0 54.0
235 15.0 3.0
236 17.0 37.0
237 31.0 54.0
238 49.0 14.0
239 21.0 62.0
240 27.0 41.0
START_DEPOT_SECTION
1
2
3
4
5
6
7
8
9
10
11
12
13
14
15
16
17
18
19
20
21
22
23
24
25
26
27
28
29
30
-1
END_DEPOT_SECTION
31
32
33
34
35
36
37
38
39
40
41
42
43
44
45
46
47
48
49
50
51
52
53
54
55
56
57
58
59
60
-1
EOF
